interdiction/MCDM/NO_CORR/GEN_FROM_60/14_ITEMS_1000_GEN/K5014W05.KNP.mps
NAME          BLANK   
ROWS
 N  OBJROW
 L  R0000000
COLUMNS
    C0000000  OBJROW     -937.         R0000000  158.        
    C0000001  OBJROW     -70.          R0000000  115.        
    C0000002  OBJROW     -885.         R0000000  480.        
    C0000003  OBJROW     -411.         R0000000  168.        
    C0000004  OBJROW     -465.         R0000000  134.        
    C0000005  OBJROW     -172.         R0000000  597.        
    C0000006  OBJROW     -183.         R0000000  758.        
    C0000007  OBJROW     -940.         R0000000  415.        
    C0000008  OBJROW     -365.         R0000000  527.        
    C0000009  OBJROW     -53.          R0000000  822.        
    C0000010  OBJROW     -38.          R0000000  803.        
    C0000011  OBJROW     -101.         R0000000  391.        
    C0000012  OBJROW     -460.         R0000000  509.        
    C0000013  OBJROW     -582.         R0000000  770.        
RHS
    RHS       R0000000  16539.      
BOUNDS
 BV BOUND     C0000000  1.          
 BV BOUND     C0000001  1.          
 BV BOUND     C0000002  1.          
 BV BOUND     C0000003  1.          
 BV BOUND     C0000004  1.          
 BV BOUND     C0000005  1.          
 BV BOUND     C0000006  1.          
 BV BOUND     C0000007  1.          
 BV BOUND     C0000008  1.          
 BV BOUND     C0000009  1.          
 BV BOUND     C0000010  1.          
 BV BOUND     C0000011  1.          
 BV BOUND     C0000012  1.          
 BV BOUND     C0000013  1.          
ENDATA
