data/MCDM/NO_CORR/GEN_FROM_60/14_ITEMS_1000_GEN/K5014W05.KNP.txt
N 14
M 15
LC 14
LC 15
LC 16
LC 17
LC 18
LC 19
LC 20
LC 21
LC 22
LC 23
LC 24
LC 25
LC 26
LC 27
LR 1
LR 2
LR 3
LR 4
LR 5
LR 6
LR 7
LR 8
LR 9
LR 10
LR 11
LR 12
LR 13
LR 14
LR 15
LO -937
LO -70
LO -885
LO -411
LO -465
LO -172
LO -183
LO -940
LO -365
LO -53
LO -38
LO -101
LO -460
LO -582
OS 1
IC 791
IC 203
IC 911
IC 271
IC 253
IC 229
IC 6
IC 627
IC 471
IC 590
IC 93
IC 764
IC 91
IC 403
IB 2852
